p cnf 124 371
c weights 1.0 1.0 1.0 1.0 1.0 1.0 1.0 1.0 1.0 1.0 1.0 1.0 1.0 1.0 1.0 1.0 1.0 1.0 1.0 1.0 1.0 1.0 1.0 1.0 1.0 1.0 1.0 1.0 1.0 1.0 1.0 1.0 1.0 1.0 1.0 1.0 1.0 1.0 1.0 1.0 1.0 1.0 1.0 1.0 1.0 1.0 1.0 1.0 1.0 1.0 1.0 1.0 1.0 1.0 1.0 1.0 1.0 1.0 1.0 1.0 1.0 1.0 1.0 1.0 1.0 1.0 1.0 1.0 0.2 1.0 0.8 1.0 0.2 1.0 0.8 1.0 0.2 1.0 0.8 1.0 0.3 1.0 0.7 1.0 0.0 1.0 1.0 1.0 0.3 1.0 0.7 1.0 0.0 1.0 1.0 1.0 0.3 1.0 0.7 1.0 0.0 1.0 1.0 1.0 0.1 1.0 0.9 1.0 0.1 1.0 0.9 1.0 0.1 1.0 0.9 1.0 0.1 1.0 0.9 1.0 0.4 1.0 0.6 1.0 0.0 1.0 1.0 1.0 0.0 1.0 1.0 1.0 0.0 1.0 1.0 1.0 0.4 1.0 0.6 1.0 0.0 1.0 1.0 1.0 0.0 1.0 1.0 1.0 0.0 1.0 1.0 1.0 1.0 1.0 0.0 1.0 1.0 1.0 0.0 1.0 1.0 1.0 0.0 1.0 0.0 1.0 1.0 1.0 1.0 1.0 0.0 1.0 1.0 1.0 0.0 1.0 1.0 1.0 0.0 1.0 0.0 1.0 1.0 1.0 0.4 1.0 0.6 1.0 0.0 1.0 1.0 1.0 0.0 1.0 1.0 1.0 0.0 1.0 1.0 1.0 0.4 1.0 0.6 1.0 0.0 1.0 1.0 1.0 0.0 1.0 1.0 1.0 0.0 1.0 1.0 1.0 1.0 1.0 0.0 1.0 1.0 1.0 0.0 1.0 1.0 1.0 0.0 1.0 1.0 1.0 0.0 1.0 1.0 1.0 0.0 1.0 1.0 1.0 0.0 1.0 1.0 1.0 0.0 1.0 0.0 1.0 1.0 1.0 
1 2 0
-1 -2 0
3 4 0
-3 -4 0
5 6 0
-5 -6 0
7 8 0
-7 -8 0
9 10 0
-9 -10 0
11 12 0
-11 -12 0
13 14 0
-13 -14 0
15 16 0
-15 -16 0
17 18 0
-17 -18 0
19 20 0
-19 -20 0
21 22 0
-21 -22 0
23 24 0
-23 -24 0
25 26 0
-25 -26 0
27 28 0
-27 -28 0
29 30 0
-29 -30 0
31 32 0
-31 -32 0
33 34 0
-33 -34 0
35 -1 0
1 -35 0
36 -2 0
2 -36 0
37 -3 0
3 -37 0
38 -4 0
4 -38 0
39 -5 0
5 -39 0
40 -6 0
6 -40 0
41 -1 -7 0
-41 1 0
-41 7 0
42 -1 -8 0
-42 1 0
-42 8 0
43 -2 -7 0
-43 2 0
-43 7 0
44 -2 -8 0
-44 2 0
-44 8 0
45 -3 -9 0
-45 3 0
-45 9 0
46 -3 -10 0
-46 3 0
-46 10 0
47 -4 -9 0
-47 4 0
-47 9 0
48 -4 -10 0
-48 4 0
-48 10 0
49 -5 -11 0
-49 5 0
-49 11 0
50 -5 -12 0
-50 5 0
-50 12 0
51 -6 -11 0
-51 6 0
-51 11 0
52 -6 -12 0
-52 6 0
-52 12 0
53 -13 0
13 -53 0
54 -14 0
14 -54 0
55 -15 0
15 -55 0
56 -16 0
16 -56 0
57 -17 0
17 -57 0
58 -18 0
18 -58 0
59 -19 0
19 -59 0
60 -20 0
20 -60 0
61 -17 -11 -21 0
-61 17 0
-61 11 0
-61 21 0
62 -17 -11 -22 0
-62 17 0
-62 11 0
-62 22 0
63 -17 -12 -21 0
-63 17 0
-63 12 0
-63 21 0
64 -17 -12 -22 0
-64 17 0
-64 12 0
-64 22 0
65 -18 -11 -21 0
-65 18 0
-65 11 0
-65 21 0
66 -18 -11 -22 0
-66 18 0
-66 11 0
-66 22 0
67 -18 -12 -21 0
-67 18 0
-67 12 0
-67 21 0
68 -18 -12 -22 0
-68 18 0
-68 12 0
-68 22 0
69 -19 -9 -23 0
-69 19 0
-69 9 0
-69 23 0
70 -19 -9 -24 0
-70 19 0
-70 9 0
-70 24 0
71 -19 -10 -23 0
-71 19 0
-71 10 0
-71 23 0
72 -19 -10 -24 0
-72 19 0
-72 10 0
-72 24 0
73 -20 -9 -23 0
-73 20 0
-73 9 0
-73 23 0
74 -20 -9 -24 0
-74 20 0
-74 9 0
-74 24 0
75 -20 -10 -23 0
-75 20 0
-75 10 0
-75 23 0
76 -20 -10 -24 0
-76 20 0
-76 10 0
-76 24 0
77 -21 -9 -25 0
-77 21 0
-77 9 0
-77 25 0
78 -21 -9 -26 0
-78 21 0
-78 9 0
-78 26 0
79 -21 -10 -25 0
-79 21 0
-79 10 0
-79 25 0
80 -21 -10 -26 0
-80 21 0
-80 10 0
-80 26 0
81 -22 -9 -25 0
-81 22 0
-81 9 0
-81 25 0
82 -22 -9 -26 0
-82 22 0
-82 9 0
-82 26 0
83 -22 -10 -25 0
-83 22 0
-83 10 0
-83 25 0
84 -22 -10 -26 0
-84 22 0
-84 10 0
-84 26 0
85 -23 -11 -27 0
-85 23 0
-85 11 0
-85 27 0
86 -23 -11 -28 0
-86 23 0
-86 11 0
-86 28 0
87 -23 -12 -27 0
-87 23 0
-87 12 0
-87 27 0
88 -23 -12 -28 0
-88 23 0
-88 12 0
-88 28 0
89 -24 -11 -27 0
-89 24 0
-89 11 0
-89 27 0
90 -24 -11 -28 0
-90 24 0
-90 11 0
-90 28 0
91 -24 -12 -27 0
-91 24 0
-91 12 0
-91 27 0
92 -24 -12 -28 0
-92 24 0
-92 12 0
-92 28 0
93 -13 -25 -29 0
-93 13 0
-93 25 0
-93 29 0
94 -13 -25 -30 0
-94 13 0
-94 25 0
-94 30 0
95 -13 -26 -29 0
-95 13 0
-95 26 0
-95 29 0
96 -13 -26 -30 0
-96 13 0
-96 26 0
-96 30 0
97 -14 -25 -29 0
-97 14 0
-97 25 0
-97 29 0
98 -14 -25 -30 0
-98 14 0
-98 25 0
-98 30 0
99 -14 -26 -29 0
-99 14 0
-99 26 0
-99 29 0
100 -14 -26 -30 0
-100 14 0
-100 26 0
-100 30 0
101 -15 -27 -31 0
-101 15 0
-101 27 0
-101 31 0
102 -15 -27 -32 0
-102 15 0
-102 27 0
-102 32 0
103 -15 -28 -31 0
-103 15 0
-103 28 0
-103 31 0
104 -15 -28 -32 0
-104 15 0
-104 28 0
-104 32 0
105 -16 -27 -31 0
-105 16 0
-105 27 0
-105 31 0
106 -16 -27 -32 0
-106 16 0
-106 27 0
-106 32 0
107 -16 -28 -31 0
-107 16 0
-107 28 0
-107 31 0
108 -16 -28 -32 0
-108 16 0
-108 28 0
-108 32 0
109 -7 -29 -31 -33 0
-109 7 0
-109 29 0
-109 31 0
-109 33 0
110 -7 -29 -31 -34 0
-110 7 0
-110 29 0
-110 31 0
-110 34 0
111 -7 -29 -32 -33 0
-111 7 0
-111 29 0
-111 32 0
-111 33 0
112 -7 -29 -32 -34 0
-112 7 0
-112 29 0
-112 32 0
-112 34 0
113 -7 -30 -31 -33 0
-113 7 0
-113 30 0
-113 31 0
-113 33 0
114 -7 -30 -31 -34 0
-114 7 0
-114 30 0
-114 31 0
-114 34 0
115 -7 -30 -32 -33 0
-115 7 0
-115 30 0
-115 32 0
-115 33 0
116 -7 -30 -32 -34 0
-116 7 0
-116 30 0
-116 32 0
-116 34 0
117 -8 -29 -31 -33 0
-117 8 0
-117 29 0
-117 31 0
-117 33 0
118 -8 -29 -31 -34 0
-118 8 0
-118 29 0
-118 31 0
-118 34 0
119 -8 -29 -32 -33 0
-119 8 0
-119 29 0
-119 32 0
-119 33 0
120 -8 -29 -32 -34 0
-120 8 0
-120 29 0
-120 32 0
-120 34 0
121 -8 -30 -31 -33 0
-121 8 0
-121 30 0
-121 31 0
-121 33 0
122 -8 -30 -31 -34 0
-122 8 0
-122 30 0
-122 31 0
-122 34 0
123 -8 -30 -32 -33 0
-123 8 0
-123 30 0
-123 32 0
-123 33 0
124 -8 -30 -32 -34 0
-124 8 0
-124 30 0
-124 32 0
-124 34 0
33 0